instances/p1/p1_6_5-0.dzn
Alphabet = {A,C,G,T};
ns = 6;
nc = 5;
neighbours = [| I(A),I(A),I(A),I(A),I(A) | I(A),I(A),I(A),I(C),I(C) | I(C),I(A),I(A),I(A),I(A) | I(A),I(A),I(C),I(C),I(A) | I(T),I(A),I(A),I(A),I(G) | I(C),I(A),I(C),I(C),I(A) |];
