instances/p1/p1_6_5-0.txt
{
	"num_strings": 6,
	"alphabet": "ACGT",
	"strings": [
		"AAAAA",
		"AAACC",
		"CAAAA",
		"AACCA",
		"TAAAG",
		"CACCA"
	],
	"str_length":[5,5,5,5,5,5]
}